#######################################
### Exact MIP solver for the HHCRSP ###
#######################################
-- Instance file: new-instances/HHCRSP_75_15_49_1.0_R_RC.txt
-- Max threads: 4
-- Time limit: 999999 seconds
-- Use initial solution: No
Trivial flow violations prevented generating 18926 variables.
Model exported.
Version identifier: 20.1.0.0 | 2020-11-10 | 9bedb6d68
CPXPARAM_Threads                                 4
CPXPARAM_TimeLimit                               999999
Parallel mode: deterministic, using up to 4 threads for concurrent optimization:
 * Starting dual Simplex on 1 thread...
 * Starting Barrier on 3 threads...
Tried aggregator 1 time.
LP Presolve eliminated 3060 rows and 673 columns.
Reduced LP has 22790 rows, 21989 columns, and 214452 nonzeros.
Presolve time = 0.10 sec. (60.15 ticks)
Symmetry aggregator did 24287 additional substitutions.

Iteration log . . .
Iteration:     1   Dual objective     =             0.000000

Dual crossover.
  Dual:  Fixing 180 variables.
      179 DMoves:  Infeasibility  3.07531795e-14  Objective  1.45333333e+02
        0 DMoves:  Infeasibility  3.18634025e-14  Objective  1.45333333e+02
  Dual:  Pushed 8, exchanged 172.
  Primal:  Fixing 58 variables.
       57 PMoves:  Infeasibility  3.88578059e-16  Objective  1.45333333e+02
        0 PMoves:  Infeasibility  5.55111512e-16  Objective  1.45333333e+02
  Primal:  Pushed 19, exchanged 39.

Dual simplex solved model.


Solution status from MIP model:
-- Processing time: 0.193 sec.
-- Memory used: 85.1387 MB
-- Best bound: inf
-- Obj value: 145.333
-- Gap: inf%
-- Total distance: 436
-- Total tardiness: 0
-- Largest tardiness: 0
